c 
c G(k,n,p) graph
c graph gen seed     : 29976
c number of vertices : 30
c max number of edges: 500
c number of classes  : 2
c edge density       : 0.600000
c edge probability   : 1.200000
c data structure     : dense
c
c           Graph Stats
c number of vertices  : 30
c nonisolated vertices: 30
c number of edges     : 209
c edge density        : 0.480460
c max degree          : 19
c avg degree          : 13.93
c min degree          : 11
p col 30 209
e 1 3
e 1 4
e 1 6
e 1 7
e 1 8
e 1 9
e 1 13
e 1 14
e 1 16
e 1 17
e 1 18
e 1 21
e 1 22
e 1 23
e 1 26
e 1 27
e 1 28
e 1 30
e 2 5
e 2 10
e 2 11
e 2 12
e 2 15
e 2 19
e 2 20
e 2 24
e 2 25
e 2 29
e 3 4
e 3 6
e 3 7
e 3 8
e 3 9
e 3 13
e 3 14
e 3 16
e 3 17
e 3 18
e 3 21
e 3 22
e 3 23
e 3 26
e 3 27
e 3 28
e 3 30
e 4 6
e 4 7
e 4 8
e 4 9
e 4 13
e 4 14
e 4 16
e 4 17
e 4 18
e 4 21
e 4 22
e 4 23
e 4 26
e 4 27
e 4 28
e 4 30
e 5 10
e 5 11
e 5 12
e 5 15
e 5 19
e 5 20
e 5 24
e 5 25
e 5 29
e 6 7
e 6 8
e 6 9
e 6 13
e 6 14
e 6 16
e 6 17
e 6 18
e 6 21
e 6 22
e 6 23
e 6 26
e 6 27
e 6 28
e 6 30
e 7 8
e 7 9
e 7 13
e 7 14
e 7 16
e 7 17
e 7 18
e 7 21
e 7 22
e 7 23
e 7 26
e 7 27
e 7 28
e 7 30
e 8 9
e 8 13
e 8 14
e 8 16
e 8 17
e 8 18
e 8 21
e 8 22
e 8 23
e 8 26
e 8 27
e 8 28
e 8 30
e 9 13
e 9 14
e 9 16
e 9 17
e 9 18
e 9 21
e 9 22
e 9 23
e 9 26
e 9 27
e 9 28
e 9 30
e 10 11
e 10 12
e 10 15
e 10 19
e 10 20
e 10 24
e 10 25
e 10 29
e 11 12
e 11 15
e 11 19
e 11 20
e 11 24
e 11 25
e 11 29
e 12 15
e 12 19
e 12 20
e 12 24
e 12 25
e 12 29
e 13 14
e 13 16
e 13 17
e 13 18
e 13 21
e 13 22
e 13 23
e 13 26
e 13 27
e 13 28
e 13 30
e 14 16
e 14 17
e 14 18
e 14 21
e 14 22
e 14 23
e 14 26
e 14 27
e 14 28
e 14 30
e 15 19
e 15 20
e 15 24
e 15 25
e 15 29
e 16 17
e 16 18
e 16 21
e 16 22
e 16 23
e 16 26
e 16 27
e 16 28
e 16 30
e 17 18
e 17 21
e 17 22
e 17 23
e 17 26
e 17 27
e 17 28
e 17 30
e 18 21
e 18 22
e 18 23
e 18 26
e 18 27
e 18 28
e 18 30
e 19 20
e 19 24
e 19 25
e 19 29
e 20 24
e 20 25
e 20 29
e 21 22
e 21 23
e 21 26
e 21 27
e 21 28
e 21 30
e 22 23
e 22 26
e 22 27
e 22 28
e 22 30
e 23 26
e 23 27
e 23 28
e 23 30
e 24 25
e 24 29
e 25 29
e 26 27
e 26 28
e 26 30
e 27 28
e 27 30
e 28 30
